!HF 6-31G* EnGrad
%pal nprocs 1 end
*xyz 0 1
O 21.31548000 47.19077000 40.87238000
H 22.11097000 46.98487000 41.16553000
H 20.96265000 46.41737000 40.67613000
O 20.35232000 49.63574000 40.01023000
H 20.79050000 48.92392000 40.26012000
H 19.54326000 49.49202000 40.30334000
O 21.78987000 47.25010000 37.48256000
H 21.67133000 47.22017000 38.34638000
H 21.14108000 47.76263000 37.20411000
O 22.25294000 44.28778000 39.87163000
H 22.68414000 43.83080000 40.47691000
H 22.81575000 44.91633000 39.64956000
*
