!HF STO-3G EnGrad
%pal nprocs 1 end
*xyz 0 1
O 24.10596000 46.93173000 41.50917000
H 24.52212000 47.66562000 41.73132000
H 24.52341000 46.31399000 41.96223000
*
