!HF 6-31G* EnGrad
%pal nprocs 1 end
*xyz 0 1
O 20.35232000 49.63574000 40.01023000
H 19.54326000 49.49202000 40.30334000
H 20.79050000 48.92392000 40.26012000
O 22.25294000 44.28778000 39.87163000
H 22.68414000 43.83080000 40.47691000
H 22.81575000 44.91633000 39.64956000
*
