!HF STO-3G EnGrad
%pal nprocs 1 end
*xyz 0 1
O 20.35232000 49.63574000 40.01023000
H 20.79050000 48.92392000 40.26012000
H 19.54326000 49.49202000 40.30334000
*
