!HF 6-31G* EnGrad
%pal nprocs 1 end
*xyz 0 1
O 20.35232000 49.63574000 40.01023000
H 20.79050000 48.92392000 40.26012000
H 19.54326000 49.49202000 40.30334000
O 19.10373000 45.58535000 40.48424000
H 18.38270000 45.25544000 40.12036000
H 18.82331000 45.89664000 41.24949000
O 22.25294000 44.28778000 39.87163000
H 22.68414000 43.83080000 40.47691000
H 22.81575000 44.91633000 39.64956000
O 21.99613000 48.36911000 43.54199000
H 21.97702000 49.24128000 43.53308000
H 21.46413000 48.14557000 42.88766000
*
