!HF 6-31G* EnGrad
%pal nprocs 1 end
*xyz 0 1
O 24.10596000 46.93173000 41.50917000
H 24.52212000 47.66562000 41.73132000
H 24.52341000 46.31399000 41.96223000
O 22.25294000 44.28778000 39.87163000
H 22.68414000 43.83080000 40.47691000
H 22.81575000 44.91633000 39.64956000
*
