!HF STO-3G EnGrad
%pal nprocs 1 end
*xyz 0 1
O 21.31548000 47.19077000 40.87238000
H 22.11097000 46.98487000 41.16553000
H 20.96265000 46.41737000 40.67613000
O 24.10596000 46.93173000 41.50917000
H 24.52341000 46.31399000 41.96223000
H 24.52212000 47.66562000 41.73132000
O 20.35232000 49.63574000 40.01023000
H 20.79050000 48.92392000 40.26012000
H 19.54326000 49.49202000 40.30334000
*
