!HF 6-31G* EnGrad
%pal nprocs 1 end
*xyzfile 0 1 ../cluster_990.xyz
