!HF STO-3G EnGrad
%pal nprocs 1 end
*xyz 0 1
O 24.10596000 46.93173000 41.50917000
H 24.52341000 46.31399000 41.96223000
H 24.52212000 47.66562000 41.73132000
O 20.35232000 49.63574000 40.01023000
H 20.79050000 48.92392000 40.26012000
H 19.54326000 49.49202000 40.30334000
O 19.10373000 45.58535000 40.48424000
H 18.38270000 45.25544000 40.12036000
H 18.82331000 45.89664000 41.24949000
*
