!HF 6-31G* EnGrad
%pal nprocs 1 end
*xyzfile -1 1 ../cluster_990_hydroxide.xyz
