!HF 6-31G* EnGrad
%pal nprocs 1 end
*xyz 0 1
O 21.31548000 47.19077000 40.87238000
H 22.11097000 46.98487000 41.16553000
H 20.96265000 46.41737000 40.67613000
O 21.99613000 48.36911000 43.54199000
H 21.97702000 49.24128000 43.53308000
H 21.46413000 48.14557000 42.88766000
*
