!HF 6-31G* EnGrad
%pal nprocs 1 end
*xyz -1 1
O 19.10373000 45.58535000 40.48424000
H 18.38270000 45.25544000 40.12036000
H 18.82331000 45.89664000 41.24949000
O 21.99613000 48.36911000 43.54199000
H 21.97702000 49.24128000 43.53308000
*
