!HF STO-3G EnGrad
%pal nprocs 1 end
*xyz 0 1
O 19.10373000 45.58535000 40.48424000
H 18.38270000 45.25544000 40.12036000
H 18.82331000 45.89664000 41.24949000
O 22.25294000 44.28778000 39.87163000
H 22.68414000 43.83080000 40.47691000
H 22.81575000 44.91633000 39.64956000
*
