!HF 6-31G* EnGrad
%pal nprocs 1 end
*xyz -1 1
O 21.99613000 48.36911000 43.54199000
H 21.97702000 49.24128000 43.53308000
*
