!HF 6-31G* EnGrad
%pal nprocs 1 end
*xyz 0 1
O 21.31548000 47.19077000 40.87238000
H 22.11097000 46.98487000 41.16553000
H 20.96265000 46.41737000 40.67613000
*
