!HF STO-3G EnGrad
%pal nprocs 1 end
*xyz 0 1
O 21.78987000 47.25010000 37.48256000
H 21.67133000 47.22017000 38.34638000
H 21.14108000 47.76263000 37.20411000
O 21.99613000 48.36911000 43.54199000
H 21.97702000 49.24128000 43.53308000
H 21.46413000 48.14557000 42.88766000
*
