!HF 6-31G* EnGrad
%pal nprocs 1 end
*xyz 0 1
O 21.31548000 47.19077000 40.87238000
H 22.11097000 46.98487000 41.16553000
H 20.96265000 46.41737000 40.67613000
O 24.10596000 46.93173000 41.50917000
H 24.52341000 46.31399000 41.96223000
H 24.52212000 47.66562000 41.73132000
O 19.10373000 45.58535000 40.48424000
H 18.38270000 45.25544000 40.12036000
H 18.82331000 45.89664000 41.24949000
*
