!HF 6-31G* EnGrad
%pal nprocs 1 end
*xyz 0 1
O 24.10596000 46.93173000 41.50917000
H 24.52341000 46.31399000 41.96223000
H 24.52212000 47.66562000 41.73132000
O 21.78987000 47.25010000 37.48256000
H 21.67133000 47.22017000 38.34638000
H 21.14108000 47.76263000 37.20411000
*
