!HF STO-3G EnGrad
%pal nprocs 1 end
*xyz 0 1
O 21.78987000 47.25010000 37.48256000
H 21.14108000 47.76263000 37.20411000
H 21.67133000 47.22017000 38.34638000
*
