!HF STO-3G EnGrad
%pal nprocs 1 end
*xyz 0 1
O 22.25294000 44.28778000 39.87163000
H 22.68414000 43.83080000 40.47691000
H 22.81575000 44.91633000 39.64956000
*
