!HF STO-3G EnGrad
%pal nprocs 1 end
*xyz 0 1
O 21.31548000 47.19077000 40.87238000
H 20.96265000 46.41737000 40.67613000
H 22.11097000 46.98487000 41.16553000
O 22.25294000 44.28778000 39.87163000
H 22.68414000 43.83080000 40.47691000
H 22.81575000 44.91633000 39.64956000
*
